p td 100 85 
76 12
76 89
80 90
92 51
62 1
77 51
77 89
24 59
52 45
31 68
79 12
18 19
18 43
18 94
10 21
10 71
4 51
4 64
4 71
33 59
11 54
6 49
6 55
70 15
70 82
75 89
47 73
39 97
36 91
36 97
16 2
16 45
63 45
63 91
88 13
40 15
40 78
35 7
35 12
35 29
35 90
9 19
37 1
37 19
66 50
66 56
66 89
98 50
98 55
22 12
22 97
61 53
25 1
25 57
14 53
69 21
69 30
69 54
69 64
74 54
74 59
74 93
96 42
23 19
23 60
23 97
44 7
44 38
84 2
84 45
84 53
32 12
32 19
32 78
26 53
26 94
3 50
3 60
3 94
17 51
17 55
17 59
17 78
41 1
41 7
